SDVRP instances/custom_instances/p04_3_split0.vrp
NAME:p04_3_split
BEST_KNOWN: 0
COMMENT: 0
DIMENSION: 704
CAPACITY: 200
EDGE_WEIGHT_FORMAT: FUNCTION
EDGE_WEIGHT_TYPE: EXACT_2D
NODE_COORD_SECTION
1 0.00000 0.00000
2 -2 34
3 -2 34
4 -2 34
5 -2 34
6 43 8
7 43 8
8 43 8
9 43 8
10 43 8
11 43 8
12 43 8
13 11 14
14 11 14
15 11 14
16 -22 -23
17 -22 -23
18 -22 -23
19 -25 38
20 -25 38
21 -25 38
22 -25 38
23 -25 38
24 -13 42
25 -13 42
26 -13 42
27 -13 42
28 -13 42
29 -13 42
30 -41 -36
31 -41 -36
32 -41 -36
33 -41 -36
34 -12 -30
35 -12 -30
36 -12 -30
37 -12 -30
38 -2 37
39 -2 37
40 -2 37
41 -2 37
42 -2 37
43 9 -1
44 9 -1
45 9 -1
46 9 -1
47 -45 -11
48 -45 -11
49 -45 -11
50 -45 -11
51 -41 -7
52 -41 -7
53 -41 -7
54 -41 -7
55 9 -43
56 9 -43
57 9 -43
58 9 -43
59 9 -43
60 -42 -42
61 -42 -42
62 -42 -42
63 -42 -42
64 -42 -42
65 48 -42
66 48 -42
67 48 -42
68 48 -42
69 48 -42
70 46 22
71 46 22
72 46 22
73 46 22
74 46 22
75 46 22
76 19 16
77 19 16
78 19 16
79 19 16
80 19 16
81 19 16
82 19 16
83 -37 26
84 -37 26
85 -37 26
86 -37 26
87 12 14
88 12 14
89 12 14
90 12 14
91 12 14
92 12 14
93 33 44
94 33 44
95 33 44
96 33 44
97 33 44
98 33 44
99 43 -40
100 43 -40
101 43 -40
102 43 -40
103 43 -40
104 43 -40
105 43 -40
106 35 -19
107 35 -19
108 35 -19
109 35 -19
110 35 -19
111 19 -8
112 19 -8
113 19 -8
114 19 -8
115 -16 34
116 -16 34
117 -16 34
118 -16 34
119 -16 34
120 24 -46
121 24 -46
122 24 -46
123 24 -46
124 24 -46
125 -2 -24
126 -2 -24
127 -2 -24
128 -2 -24
129 -2 -24
130 -2 -24
131 -30 38
132 -30 38
133 -30 38
134 -30 38
135 -30 38
136 -18 -49
137 -18 -49
138 -18 -49
139 -18 -49
140 -18 -49
141 -37 28
142 -37 28
143 -37 28
144 -37 28
145 -37 28
146 -2 31
147 -2 31
148 -2 31
149 -2 31
150 -2 31
151 23 13
152 23 13
153 23 13
154 23 13
155 23 13
156 -20 -34
157 -20 -34
158 -20 -34
159 -19 32
160 -19 32
161 -19 32
162 -19 32
163 -19 32
164 50 -21
165 50 -21
166 50 -21
167 -27 1
168 -27 1
169 -27 1
170 -27 1
171 20 -7
172 20 -7
173 20 -7
174 20 -7
175 20 -7
176 20 -7
177 -9 50
178 -9 50
179 -9 50
180 -9 50
181 -9 50
182 -25 -36
183 -25 -36
184 -25 -36
185 -25 -36
186 -25 -36
187 -25 -36
188 -30 -24
189 -30 -24
190 -30 -24
191 -30 -24
192 -30 -24
193 -30 -24
194 -30 -24
195 -42 7
196 -42 7
197 -42 7
198 -42 7
199 -42 7
200 -42 7
201 -42 7
202 -42 7
203 -21 -10
204 -21 -10
205 -21 -10
206 -21 -10
207 -21 -10
208 -21 -10
209 48 41
210 48 41
211 48 41
212 -15 23
213 -15 23
214 -15 23
215 -24 22
216 11 21
217 11 21
218 11 21
219 -33 -28
220 -33 -28
221 -33 -28
222 -20 -30
223 -20 -30
224 -20 -30
225 -20 -30
226 -20 -39
227 -20 -39
228 -20 -39
229 -20 -39
230 -20 -39
231 -34 50
232 -34 50
233 -34 50
234 42 11
235 42 11
236 42 11
237 43 -36
238 43 -36
239 43 -36
240 43 -36
241 43 -36
242 -43 18
243 -43 18
244 -43 18
245 -43 18
246 -43 18
247 24 -21
248 24 -21
249 24 -21
250 24 -21
251 24 -21
252 24 -21
253 -21 -41
254 -21 -41
255 -21 -41
256 -21 -41
257 -21 -41
258 -21 -41
259 43 17
260 43 17
261 43 17
262 43 17
263 43 17
264 6 -47
265 6 -47
266 6 -47
267 6 -47
268 6 -47
269 -1 -17
270 -1 -17
271 -1 -17
272 -1 -17
273 -25 39
274 -25 39
275 -25 39
276 38 25
277 -35 -1
278 -35 -1
279 -35 -1
280 34 -28
281 -44 -32
282 -44 -32
283 -44 -32
284 -44 -32
285 -44 -32
286 -44 -32
287 -44 -32
288 28 -17
289 28 -17
290 28 -17
291 28 -17
292 28 -17
293 -49 30
294 -49 30
295 -49 30
296 -49 30
297 -49 30
298 -49 30
299 -49 30
300 38 27
301 38 27
302 38 27
303 7 7
304 7 7
305 7 7
306 7 7
307 7 7
308 7 7
309 -25 -32
310 -25 -32
311 -25 -32
312 -25 -32
313 -25 -32
314 -25 -32
315 16 35
316 16 35
317 16 35
318 16 35
319 -41 -46
320 -41 -46
321 -41 -46
322 -41 -46
323 15 -50
324 15 -50
325 15 -50
326 15 -50
327 15 -50
328 -38 3
329 -38 3
330 -38 3
331 -38 3
332 -38 3
333 -38 3
334 49 27
335 49 27
336 49 27
337 49 27
338 49 27
339 -40 -34
340 -40 -34
341 -40 -34
342 -40 -34
343 -20 -47
344 -20 -47
345 -20 -47
346 -20 -47
347 -20 -47
348 19 15
349 19 15
350 19 15
351 19 15
352 19 15
353 19 15
354 -36 -27
355 -36 -27
356 -36 -27
357 34 -9
358 34 -9
359 34 -9
360 34 -9
361 34 -9
362 -10 12
363 -10 12
364 1 -24
365 1 -24
366 1 -24
367 1 -24
368 37 48
369 37 48
370 37 48
371 37 48
372 37 48
373 37 48
374 28 16
375 28 16
376 28 16
377 -37 11
378 -37 11
379 -37 11
380 -37 11
381 -37 11
382 46 39
383 46 39
384 46 39
385 46 39
386 -4 -6
387 -4 -6
388 -4 -6
389 -4 -6
390 -44 -39
391 -44 -39
392 -44 -39
393 -1 -50
394 -1 -50
395 -1 -50
396 -1 -50
397 50 45
398 50 45
399 27 -27
400 27 -27
401 20 4
402 20 4
403 20 4
404 20 4
405 20 4
406 20 4
407 43 3
408 43 3
409 43 3
410 43 3
411 43 3
412 43 3
413 -7 -42
414 -7 -42
415 -7 -42
416 -7 -42
417 -7 -42
418 46 15
419 46 15
420 46 15
421 46 15
422 46 15
423 -35 9
424 -35 9
425 -35 9
426 -35 9
427 -35 9
428 -35 9
429 -35 9
430 -35 9
431 35 19
432 35 19
433 35 19
434 35 19
435 35 19
436 35 19
437 35 19
438 29 -4
439 29 -4
440 29 -4
441 29 -4
442 29 -4
443 -6 10
444 -6 10
445 -6 10
446 -11 23
447 -11 23
448 -11 23
449 -34 -13
450 -34 -13
451 -34 -13
452 -34 -13
453 -34 -13
454 -48 -26
455 -48 -26
456 -48 -26
457 -47 22
458 -47 22
459 -47 22
460 -47 22
461 -47 22
462 18 -31
463 18 -31
464 18 -31
465 18 -31
466 18 -31
467 18 -31
468 39 36
469 39 36
470 39 36
471 39 36
472 5 26
473 5 26
474 5 26
475 5 26
476 5 26
477 5 26
478 5 26
479 -8 -50
480 -8 -50
481 -8 -50
482 -8 -50
483 -8 -50
484 -8 -50
485 -43 -35
486 -43 -35
487 -43 -35
488 -43 -35
489 -43 -35
490 25 -15
491 25 -15
492 25 -15
493 25 -15
494 25 -15
495 38 14
496 38 14
497 38 14
498 38 14
499 38 14
500 38 14
501 -2 -9
502 -2 -9
503 -2 -9
504 -2 -9
505 28 27
506 18 20
507 18 20
508 18 20
509 18 20
510 18 20
511 18 20
512 -8 -37
513 -8 -37
514 -8 -37
515 -8 -37
516 -8 -37
517 -8 -37
518 -8 -37
519 -39 9
520 -39 9
521 -39 9
522 -39 9
523 -39 9
524 -39 9
525 -39 9
526 -39 9
527 -29 19
528 -29 19
529 -29 19
530 -29 -27
531 -29 -27
532 -29 -27
533 -29 -27
534 -36 42
535 -36 42
536 -36 42
537 -36 42
538 -36 42
539 -36 42
540 -36 42
541 17 24
542 17 24
543 17 24
544 17 24
545 17 24
546 35 46
547 35 46
548 35 46
549 35 46
550 35 46
551 35 46
552 -4 -13
553 -4 -13
554 -4 -13
555 -4 -13
556 -4 -13
557 -50 -30
558 -50 -30
559 -50 -30
560 -50 -30
561 -50 -30
562 -50 -30
563 50 -13
564 50 -13
565 50 -13
566 50 -13
567 50 -13
568 50 -13
569 50 -13
570 -17 13
571 -17 13
572 -17 13
573 -17 13
574 -17 13
575 -17 13
576 -17 13
577 40 -43
578 40 -43
579 46 20
580 46 20
581 46 20
582 46 20
583 46 20
584 -17 21
585 29 16
586 29 16
587 29 16
588 29 16
589 29 16
590 -42 -45
591 -42 -45
592 -42 -45
593 -42 -45
594 -42 -45
595 -42 -45
596 -50 15
597 -50 15
598 -16 -13
599 -16 -13
600 -16 -13
601 -16 -13
602 24 -20
603 24 -20
604 24 -20
605 24 -20
606 24 -20
607 24 -20
608 28 40
609 28 40
610 28 40
611 28 40
612 28 40
613 28 40
614 28 40
615 -11 -37
616 -11 -37
617 -11 -37
618 -11 -37
619 41 -12
620 41 -12
621 41 -12
622 41 -12
623 37 33
624 37 33
625 37 33
626 37 33
627 37 33
628 37 33
629 -29 -4
630 -29 -4
631 -29 -4
632 -29 -4
633 -29 -4
634 -29 -4
635 -29 -4
636 18 -11
637 3 4
638 3 4
639 3 4
640 3 4
641 3 4
642 3 4
643 39 -31
644 39 -31
645 39 -31
646 39 -31
647 39 -31
648 45 46
649 45 46
650 45 46
651 45 46
652 41 25
653 41 25
654 41 25
655 41 25
656 41 25
657 41 25
658 41 25
659 46 -35
660 46 -35
661 46 -35
662 27 7
663 27 7
664 27 7
665 27 7
666 27 7
667 25 -19
668 25 -19
669 25 -19
670 25 -19
671 25 -19
672 29 7
673 29 7
674 29 7
675 29 7
676 47 18
677 47 18
678 47 18
679 47 18
680 -3 11
681 -3 11
682 -3 11
683 -3 11
684 -3 11
685 33 4
686 33 4
687 33 4
688 33 4
689 3 -10
690 3 -10
691 3 -10
692 3 -10
693 18 -43
694 18 -43
695 18 -43
696 -11 -48
697 -11 -48
698 -11 -48
699 -11 -48
700 40 -45
701 40 -45
702 40 -45
703 40 -45
704 40 -45
DEMAND_SECTION
1 0
2 20
3 2
4 2
5 1
6 40
7 40
8 10
9 2
10 2
11 2
12 2
13 40
14 10
15 2
16 40
17 10
18 2
19 40
20 20
21 10
22 2
23 2
24 40
25 40
26 2
27 2
28 2
29 2
30 40
31 20
32 10
33 1
34 40
35 40
36 2
37 1
38 40
39 2
40 2
41 2
42 2
43 20
44 10
45 2
46 2
47 40
48 40
49 10
50 2
51 40
52 20
53 10
54 1
55 20
56 10
57 2
58 2
59 2
60 40
61 40
62 10
63 2
64 2
65 20
66 10
67 2
68 2
69 1
70 40
71 10
72 2
73 2
74 2
75 1
76 40
77 10
78 2
79 2
80 2
81 2
82 1
83 40
84 10
85 2
86 2
87 40
88 20
89 10
90 2
91 2
92 1
93 40
94 10
95 2
96 2
97 2
98 1
99 40
100 40
101 10
102 2
103 2
104 2
105 1
106 40
107 40
108 10
109 2
110 1
111 40
112 20
113 2
114 2
115 20
116 2
117 2
118 2
119 1
120 40
121 40
122 10
123 2
124 2
125 40
126 40
127 10
128 2
129 2
130 2
131 40
132 20
133 2
134 2
135 1
136 40
137 40
138 2
139 2
140 1
141 20
142 2
143 2
144 2
145 2
146 40
147 20
148 10
149 2
150 1
151 40
152 10
153 2
154 2
155 2
156 40
157 10
158 2
159 40
160 40
161 2
162 2
163 1
164 40
165 2
166 1
167 40
168 20
169 2
170 2
171 20
172 2
173 2
174 2
175 2
176 1
177 20
178 10
179 2
180 2
181 1
182 40
183 40
184 10
185 2
186 2
187 2
188 40
189 40
190 10
191 2
192 2
193 2
194 1
195 40
196 20
197 10
198 2
199 2
200 2
201 2
202 1
203 40
204 10
205 2
206 2
207 2
208 2
209 40
210 20
211 2
212 20
213 10
214 2
215 40
216 40
217 10
218 2
219 40
220 10
221 2
222 20
223 2
224 2
225 2
226 40
227 2
228 2
229 2
230 2
231 20
232 10
233 2
234 40
235 20
236 1
237 20
238 2
239 2
240 2
241 1
242 20
243 2
244 2
245 2
246 2
247 40
248 40
249 10
250 2
251 2
252 2
253 20
254 2
255 2
256 2
257 2
258 1
259 40
260 40
261 2
262 2
263 1
264 40
265 2
266 2
267 2
268 2
269 40
270 2
271 2
272 2
273 40
274 2
275 2
276 40
277 40
278 40
279 2
280 40
281 40
282 40
283 10
284 2
285 2
286 2
287 1
288 40
289 40
290 10
291 2
292 1
293 40
294 40
295 2
296 2
297 2
298 2
299 1
300 20
301 10
302 2
303 20
304 2
305 2
306 2
307 2
308 1
309 40
310 40
311 10
312 2
313 2
314 2
315 40
316 2
317 2
318 2
319 20
320 2
321 2
322 2
323 20
324 10
325 2
326 2
327 2
328 40
329 20
330 10
331 2
332 2
333 1
334 40
335 10
336 2
337 2
338 2
339 20
340 10
341 2
342 1
343 40
344 10
345 2
346 2
347 2
348 40
349 10
350 2
351 2
352 2
353 2
354 40
355 2
356 1
357 40
358 40
359 2
360 2
361 1
362 40
363 20
364 40
365 10
366 2
367 1
368 40
369 10
370 2
371 2
372 2
373 2
374 40
375 40
376 10
377 40
378 40
379 2
380 2
381 1
382 20
383 2
384 2
385 2
386 20
387 2
388 2
389 2
390 20
391 10
392 1
393 40
394 20
395 10
396 1
397 20
398 10
399 20
400 10
401 20
402 2
403 2
404 2
405 2
406 1
407 40
408 40
409 10
410 2
411 2
412 2
413 40
414 40
415 2
416 2
417 1
418 20
419 2
420 2
421 2
422 1
423 40
424 40
425 10
426 2
427 2
428 2
429 2
430 1
431 40
432 40
433 2
434 2
435 2
436 2
437 1
438 20
439 10
440 2
441 2
442 2
443 40
444 20
445 1
446 40
447 40
448 1
449 20
450 2
451 2
452 2
453 2
454 40
455 2
456 1
457 40
458 40
459 10
460 2
461 2
462 40
463 20
464 2
465 2
466 2
467 2
468 40
469 40
470 10
471 2
472 40
473 40
474 10
475 2
476 2
477 2
478 1
479 40
480 40
481 10
482 2
483 2
484 2
485 40
486 10
487 2
488 2
489 1
490 40
491 20
492 10
493 2
494 2
495 40
496 10
497 2
498 2
499 2
500 1
501 20
502 10
503 2
504 2
505 40
506 40
507 40
508 2
509 2
510 2
511 2
512 40
513 40
514 10
515 2
516 2
517 2
518 1
519 40
520 20
521 10
522 2
523 2
524 2
525 2
526 1
527 40
528 10
529 1
530 40
531 40
532 2
533 2
534 40
535 20
536 10
537 2
538 2
539 2
540 1
541 40
542 10
543 2
544 2
545 2
546 40
547 20
548 2
549 2
550 2
551 1
552 40
553 20
554 10
555 2
556 2
557 40
558 20
559 2
560 2
561 2
562 2
563 20
564 10
565 2
566 2
567 2
568 2
569 1
570 20
571 10
572 2
573 2
574 2
575 2
576 1
577 20
578 10
579 40
580 40
581 10
582 2
583 2
584 40
585 40
586 40
587 2
588 2
589 1
590 40
591 20
592 2
593 2
594 2
595 1
596 40
597 1
598 40
599 40
600 2
601 1
602 40
603 20
604 10
605 2
606 2
607 1
608 20
609 10
610 2
611 2
612 2
613 2
614 1
615 20
616 10
617 2
618 1
619 40
620 40
621 10
622 2
623 20
624 10
625 2
626 2
627 2
628 2
629 40
630 40
631 2
632 2
633 2
634 2
635 1
636 40
637 40
638 20
639 10
640 2
641 2
642 1
643 40
644 20
645 10
646 2
647 2
648 40
649 2
650 2
651 2
652 40
653 10
654 2
655 2
656 2
657 2
658 1
659 40
660 10
661 2
662 40
663 20
664 10
665 2
666 2
667 40
668 20
669 2
670 2
671 1
672 40
673 20
674 2
675 2
676 40
677 20
678 10
679 2
680 40
681 40
682 10
683 2
684 2
685 20
686 10
687 2
688 2
689 40
690 2
691 2
692 2
693 40
694 20
695 10
696 40
697 2
698 2
699 2
700 40
701 2
702 2
703 2
704 2
DEPOT_SECTION
1
-1
EOF