SDVRP instances/custom_instances/p04_3_split0.sol
703 -3 1 2 4 37 38 40 41 39 180 178 176 177 179 27 28 25 23 24 26 -6 8 9 10 11 7 5 408 406 411 410 407 409 -16 17 218 219 220 353 190 191 189 187 193 188 -18 21 20 274 272 273 116 118 114 117 115 145 148 146 147 149 -19 22 232 230 231 534 536 538 539 537 533 535 134 132 130 131 133 -36 33 35 34 614 617 512 513 511 -44 43 173 170 175 171 174 172 288 287 289 290 291 669 667 666 668 670 -45 42 113 110 111 112 491 492 493 489 490 635 -51 50 53 52 48 49 46 47 451 452 448 450 449 206 205 -56 58 57 54 55 267 265 264 263 266 395 394 393 392 413 -82 84 85 83 144 142 140 141 143 295 297 298 296 293 292 294 245 241 244 242 243 380 -86 87 89 88 12 14 13 637 640 638 636 641 639 -90 91 607 610 613 650 648 649 647 397 396 208 209 210 383 382 381 384 470 307 303 305 306 -98 102 103 101 99 100 104 240 239 238 236 237 645 644 646 643 642 -106 107 108 105 109 279 246 250 -150 154 152 153 151 79 77 75 76 81 80 78 347 352 349 348 350 351 302 304 -157 155 156 225 228 181 182 184 185 183 186 310 -163 165 164 567 566 563 565 564 562 568 619 621 620 618 440 437 439 -168 167 276 278 277 632 631 633 628 634 629 630 -169 166 328 330 329 332 331 327 200 196 199 194 201 197 198 195 -192 484 487 488 485 486 391 389 390 30 31 32 29 340 341 339 338 600 599 -204 207 203 202 15 598 597 385 388 386 -212 213 211 160 158 159 161 162 447 445 446 -216 215 217 471 472 473 476 474 477 475 -227 226 229 254 253 255 256 252 257 346 345 342 343 344 137 138 139 135 136 615 616 -233 234 235 421 420 418 419 417 677 678 675 676 497 498 496 495 499 -261 258 262 259 260 579 580 582 581 70 69 73 432 435 -269 268 270 271 126 124 129 128 127 125 365 363 366 364 -275 651 655 657 653 654 652 656 335 337 333 336 334 71 74 72 578 -282 283 286 62 61 63 60 59 590 591 589 593 594 592 318 319 321 320 -300 299 301 469 467 468 623 624 625 622 627 626 504 -316 317 314 315 540 541 542 544 543 507 505 509 506 508 510 -325 323 322 326 324 119 121 123 120 122 694 693 692 -354 355 285 281 280 284 558 559 557 561 560 556 455 454 453 -362 583 214 526 527 528 573 575 571 570 572 569 574 -371 368 372 370 369 367 545 550 546 548 549 547 94 95 93 96 92 97 611 608 609 612 -375 373 374 588 585 584 586 587 400 404 402 -378 379 376 377 520 525 518 521 519 429 422 425 -387 222 223 224 221 311 309 313 312 308 530 529 532 531 -398 399 577 576 703 700 701 699 702 67 64 66 68 65 660 659 658 -401 405 403 674 671 672 673 684 687 685 686 356 360 359 357 358 438 441 -412 416 414 415 481 478 483 479 482 480 698 696 695 697 517 514 515 516 -423 426 424 428 427 524 523 522 595 596 457 458 460 456 459 -433 431 434 436 430 494 665 662 663 661 664 -442 444 443 361 679 680 683 682 681 -464 466 465 461 462 463 247 248 251 249 606 603 602 601 604 605 -503 502 501 500 553 554 555 552 551 688 691 690 689 0 





OBJ=
4319.335
BEST_KNOWN=
0.000